80
919
10
70
8
31
45
23
18
55
79
74
83
0 1
0 3
0 8
0 16
0 26
0 29
0 32
0 33
0 36
0 37
0 38
0 39
0 42
0 44
0 47
0 51
0 52
0 65
0 66
0 70
0 72
0 75
0 78
0 79
1 2
1 4
1 11
1 12
1 13
1 14
1 18
1 20
1 30
1 37
1 43
1 50
1 65
1 66
1 75
1 76
1 78
1 79
2 12
2 13
2 15
2 23
2 24
2 27
2 36
2 37
2 38
2 44
2 54
2 58
2 61
2 66
2 68
2 69
2 70
3 4
3 5
3 7
3 9
3 14
3 18
3 23
3 24
3 27
3 29
3 33
3 36
3 38
3 41
3 52
3 54
3 60
3 61
3 62
3 67
3 70
3 73
3 75
3 78
4 5
4 8
4 11
4 19
4 21
4 22
4 26
4 27
4 34
4 35
4 43
4 47
4 52
4 54
4 58
4 60
4 63
4 68
4 69
4 71
5 8
5 13
5 15
5 17
5 19
5 21
5 22
5 23
5 31
5 34
5 42
5 52
5 62
5 65
5 66
5 70
5 79
6 7
6 8
6 9
6 10
6 11
6 16
6 20
6 21
6 23
6 30
6 33
6 34
6 38
6 39
6 42
6 44
6 45
6 46
6 50
6 59
6 61
6 63
6 66
6 68
6 73
6 76
7 8
7 11
7 13
7 17
7 24
7 28
7 33
7 34
7 36
7 43
7 45
7 47
7 54
7 55
7 59
7 62
7 69
7 70
7 77
8 9
8 22
8 24
8 31
8 33
8 36
8 39
8 40
8 44
8 48
8 51
8 61
8 62
8 65
8 67
8 70
8 76
8 77
8 78
9 11
9 13
9 15
9 16
9 17
9 18
9 19
9 23
9 24
9 28
9 38
9 39
9 43
9 44
9 56
9 57
9 60
9 64
9 66
9 67
9 77
10 13
10 18
10 28
10 48
10 49
10 54
10 56
10 57
10 59
10 60
10 61
10 63
10 73
10 74
10 76
10 77
10 79
11 14
11 15
11 16
11 18
11 19
11 21
11 22
11 25
11 30
11 32
11 33
11 34
11 35
11 39
11 40
11 41
11 47
11 48
11 49
11 51
11 52
11 55
11 57
11 59
11 60
11 62
11 66
11 68
11 70
11 74
11 77
11 78
11 79
12 13
12 18
12 20
12 24
12 38
12 40
12 46
12 48
12 62
12 63
12 65
12 68
12 71
12 72
12 75
13 15
13 18
13 26
13 28
13 34
13 35
13 36
13 38
13 39
13 43
13 45
13 47
13 51
13 56
13 58
13 70
13 71
13 73
13 77
14 15
14 16
14 18
14 19
14 22
14 27
14 28
14 34
14 37
14 38
14 46
14 57
14 60
14 66
14 69
14 71
14 74
15 17
15 22
15 25
15 26
15 28
15 34
15 37
15 38
15 49
15 68
15 69
15 72
15 76
15 77
16 18
16 19
16 25
16 33
16 37
16 44
16 45
16 48
16 56
16 62
16 66
16 69
16 70
16 73
16 75
16 76
16 78
17 18
17 21
17 22
17 26
17 27
17 32
17 34
17 36
17 39
17 41
17 43
17 47
17 53
17 56
17 63
17 65
17 68
17 72
17 77
17 78
18 19
18 22
18 23
18 24
18 26
18 27
18 33
18 34
18 35
18 36
18 39
18 45
18 48
18 49
18 53
18 54
18 57
18 60
18 62
18 64
18 66
18 72
18 76
18 77
18 79
19 20
19 23
19 27
19 32
19 33
19 42
19 51
19 55
19 60
19 70
19 72
19 74
19 76
20 27
20 28
20 32
20 33
20 36
20 40
20 43
20 54
20 58
20 61
20 63
20 67
20 68
20 76
20 78
21 22
21 23
21 30
21 38
21 39
21 40
21 43
21 56
21 61
21 67
21 68
21 75
21 77
21 79
22 26
22 29
22 30
22 34
22 35
22 37
22 38
22 44
22 47
22 48
22 51
22 53
22 55
22 56
22 58
22 62
22 63
22 66
22 72
22 75
22 79
23 24
23 25
23 32
23 36
23 37
23 39
23 46
23 55
23 56
23 58
23 61
23 65
23 66
23 68
23 72
23 74
23 76
23 78
23 79
24 27
24 28
24 31
24 33
24 36
24 37
24 49
24 52
24 53
24 57
24 58
24 60
24 63
24 65
24 66
24 70
24 77
24 78
25 30
25 32
25 38
25 46
25 47
25 49
25 54
25 60
25 69
25 70
25 74
25 76
25 77
25 79
26 35
26 38
26 40
26 46
26 47
26 48
26 49
26 51
26 53
26 57
26 58
26 65
26 68
26 72
26 73
26 76
26 77
27 35
27 43
27 44
27 47
27 55
27 58
27 61
27 62
27 65
27 67
27 69
27 78
28 36
28 37
28 44
28 45
28 49
28 50
28 66
28 67
28 73
28 75
28 76
28 78
29 30
29 31
29 33
29 36
29 37
29 47
29 51
29 52
29 53
29 55
29 60
29 62
29 69
29 70
29 72
29 74
29 76
29 77
29 79
30 34
30 35
30 41
30 42
30 47
30 48
30 51
30 56
30 58
30 61
30 66
30 69
30 73
30 76
31 32
31 33
31 35
31 42
31 51
31 52
31 53
31 63
31 68
31 69
31 72
31 78
31 79
32 37
32 38
32 39
32 43
32 44
32 47
32 50
32 52
32 54
32 55
32 59
32 61
32 66
32 78
33 36
33 38
33 39
33 47
33 49
33 53
33 56
33 61
33 64
33 68
33 71
33 76
33 78
33 79
34 35
34 36
34 38
34 51
34 54
34 58
34 62
34 63
34 71
34 75
35 37
35 40
35 42
35 43
35 44
35 50
35 66
35 67
35 70
35 72
35 73
35 76
35 78
36 37
36 43
36 47
36 50
36 54
36 56
36 59
36 60
36 65
36 70
36 72
36 74
36 79
37 38
37 47
37 50
37 51
37 55
37 57
37 65
37 66
37 69
37 76
37 79
38 42
38 44
38 46
38 49
38 53
38 55
38 57
38 60
38 61
38 65
38 68
38 69
38 73
38 77
38 78
39 41
39 47
39 49
39 54
39 56
39 58
39 60
39 61
39 62
39 70
39 73
39 76
39 77
39 78
39 79
40 42
40 44
40 46
40 47
40 48
40 50
40 51
40 53
40 58
40 60
40 61
40 63
40 67
40 68
40 72
40 74
41 51
41 55
41 58
41 69
41 71
41 73
41 75
42 43
42 45
42 47
42 49
42 50
42 52
42 54
42 55
42 56
42 61
42 62
42 63
42 66
42 67
42 78
42 79
43 44
43 45
43 46
43 48
43 50
43 52
43 53
43 59
43 60
43 61
43 68
43 69
43 70
43 74
43 76
43 78
44 50
44 54
44 65
44 66
44 68
44 69
44 73
44 74
45 46
45 49
45 54
45 58
45 62
45 65
45 66
45 74
45 77
46 48
46 49
46 52
46 54
46 57
46 61
46 64
46 65
46 75
46 78
47 50
47 53
47 64
47 69
47 70
47 72
47 73
47 76
47 79
48 56
48 59
48 62
48 69
48 71
48 78
48 79
49 52
49 56
49 57
49 60
49 61
49 74
49 77
49 79
50 58
50 60
50 61
50 65
50 71
50 73
50 75
51 60
51 63
51 68
51 70
51 71
51 72
51 75
52 54
52 57
52 58
52 59
52 79
53 60
53 61
53 63
53 64
53 70
53 71
53 72
53 74
53 75
53 76
53 77
53 79
54 55
54 57
54 58
54 62
54 63
54 64
54 66
54 69
54 70
54 71
55 61
55 64
55 66
55 69
55 72
55 76
55 77
56 57
56 61
56 62
56 67
56 69
56 72
56 77
56 79
57 60
57 62
57 63
57 65
57 66
57 79
58 61
58 72
58 76
58 77
58 78
59 65
59 70
59 72
59 73
60 61
60 62
60 68
60 70
60 76
60 79
61 64
61 66
61 67
61 71
61 73
61 74
61 76
61 77
62 63
62 64
62 67
62 69
62 71
62 73
62 75
63 65
63 68
63 70
63 77
64 68
65 68
65 76
65 78
66 71
66 73
66 76
66 78
66 79
67 68
67 77
67 78
68 73
68 74
68 76
68 77
68 78
69 71
69 74
70 72
70 78
71 72
71 73
71 77
72 74
73 74
74 76
75 76
75 78
28 19 29 4 45 72 64 52
51 20 61 34 22 44 47 41
6 71 30 48 3 37 59 2
75 76 73 43 63 79 46 39
31 70 7 23 8 5 17 26
36 74 13 67 27 77 35 66
54 50 55 60 78 58 62 53
68 69 49 33 56 18 1 32
38 25 0 14 10 11 21 9
24 40 16 12 65 57 42 15
